p edge 67 101
e 1 24
e 1 33
e 2 31
e 2 67
e 3 4
e 3 5
e 3 24
e 3 37
e 3 38
e 4 5
e 4 24
e 5 24
e 6 16
e 6 18
e 7 8
e 7 9
e 7 22
e 7 24
e 7 42
e 7 43
e 7 44
e 7 45
e 7 67
e 8 24
e 8 44
e 9 24
e 9 44
e 10 11
e 10 12
e 10 13
e 10 23
e 10 24
e 10 44
e 10 49
e 10 50
e 10 51
e 10 55
e 10 67
e 11 24
e 11 44
e 12 55
e 14 56
e 15 58
e 16 17
e 16 18
e 16 19
e 16 20
e 16 59
e 16 60
e 16 61
e 16 63
e 17 59
e 17 60
e 17 61
e 19 63
e 20 64
e 20 65
e 20 66
e 21 35
e 21 67
e 22 67
e 23 67
e 24 25
e 24 26
e 24 27
e 24 28
e 24 29
e 24 30
e 24 33
e 24 37
e 24 38
e 24 39
e 24 40
e 24 41
e 24 42
e 24 43
e 24 44
e 24 45
e 24 46
e 24 47
e 24 48
e 24 49
e 24 50
e 24 51
e 29 30
e 31 67
e 35 67
e 42 43
e 44 45
e 44 46
e 44 47
e 44 48
e 44 49
e 44 50
e 46 47
e 46 48
e 47 48
e 49 50
e 52 67
e 53 67
e 54 67
